1 185 0 0 0
2 8 0 210 0
3 261 0 0 1
4 115 200 0 1
5 6 0 290 0
6 33 0 0 1
7 155 0 180 1
8 175 230 230 0
9 260 0 0 1
10 225 240 0 0
11 115 200 180 0
12 135 0 200 0
13 112 0 0 1
14 268 0 180 1
15 232 170 0 0
16 214 0 230 0
17 292 0 200 0
18 132 180 0 1
19 47 0 70 1
20 254 0 0 0
21 124 0 80 1
22 124 0 250 0
23 9 170 170 1
24 31 230 220 1
25 247 0 0 0
26 224 0 0 1
27 64 0 200 1
28 167 60 100 1
29 6 0 0 1
30 264 0 60 0
31 36 240 240 0
32 94 90 90 1
33 299 0 0 0
34 226 240 0 1
35 44 0 0 1
36 47 0 0 0
37 143 0 200 1
38 104 150 160 1
39 9 0 0 1
40 31 230 0 1
41 155 0 0 0
42 31 0 0 0
43 94 0 0 1
44 257 250 0 1
45 185 0 210 1
46 9 0 170 1
47 50 0 210 1
48 180 0 0 0
49 180 200 300 1
50 181 0 230 0
51 299 100 0 1
52 44 0 220 1
53 285 0 0 1
54 167 0 200 0
55 241 210 210 1
56 209 230 230 1
57 17 0 0 0
58 6 0 110 0
59 209 230 0 0
60 236 110 0 0
61 18 0 200 1
62 136 0 140 1
63 294 0 160 1
64 170 50 0 0
65 283 0 0 0
66 225 240 240 0
67 84 0 0 1
68 260 0 230 0
69 137 0 0 1
70 286 0 190 1
71 181 210 0 1
72 150 0 0 0
73 168 0 0 1
74 291 0 190 1
75 136 0 240 1
76 283 0 240 1
77 6 180 270 0
78 100 240 230 0
79 286 0 0 1
80 129 230 230 1
81 241 0 180 1
82 40 0 0 1
83 104 0 160 1
84 161 0 220 0
85 170 0 120 0
86 248 210 210 1
87 100 0 0 1
88 268 170 0 0
89 136 0 0 1
90 129 0 0 0
91 292 230 230 0
92 294 190 0 0
93 214 0 0 1
94 299 240 0 1
95 273 0 220 0
96 180 200 0 0
97 225 0 230 0
98 257 200 0 0
99 6 180 180 1
100 278 0 140 0
101 278 0 0 0
102 178 230 220 1
103 84 200 190 0
104 94 0 190 1
105 137 240 240 1
106 254 240 0 0
107 208 0 0 1
108 47 220 0 0
109 124 270 160 0
110 72 200 200 0
111 7 0 0 1
112 100 240 0 0
113 84 200 0 1
114 175 0 0 1
115 180 0 200 1
116 204 0 0 0
117 154 0 230 1
118 161 0 0 0
119 84 90 100 1
120 137 0 240 0
121 8 0 0 0
122 257 230 240 0
123 94 180 190 1
124 6 180 0 1
125 175 0 210 0
126 124 170 160 0
127 255 0 0 0
128 65 210 0 1
129 104 90 90 0
130 135 0 100 1
131 273 0 0 1
132 35 0 0 0
133 273 210 220 0
134 124 0 0 1
135 33 0 180 0
136 6 110 110 1
137 291 220 210 1
138 257 0 240 0
139 241 210 0 0
140 255 0 230 1
141 99 0 0 0
142 181 230 230 1
143 225 0 0 0
144 294 190 190 1
145 226 130 0 0
146 132 0 0 1
147 236 0 0 1
148 105 0 0 1
149 47 110 60 0
150 227 0 110 0
151 292 230 0 1
152 143 0 0 1
153 299 0 250 1
154 35 150 0 1
155 254 240 230 1
156 9 140 120 1
157 36 0 240 1
158 18 200 200 0
159 197 0 180 0
160 257 0 0 1
161 164 180 0 1
162 72 0 200 0
163 99 230 0 1
164 104 90 0 0
165 167 0 100 1
166 209 0 0 0
167 261 0 100 1
168 232 0 150 1
169 169 230 0 0
170 273 220 0 1
171 154 0 0 0
172 236 0 220 0
173 150 0 170 1
174 129 220 0 1
175 47 110 0 0
176 208 210 0 0
177 154 210 230 0
178 197 0 0 1
179 36 200 0 0
180 44 190 220 1
181 248 0 0 1
182 267 0 200 0
183 112 240 0 1
184 50 0 0 1
185 94 280 0 1
186 267 0 0 0
187 58 0 0 0
188 65 0 0 0
189 115 0 180 0
190 104 250 0 1
191 50 220 220 1
192 164 0 0 0
193 143 230 220 1
194 64 0 0 0
195 18 0 0 1
196 167 0 0 0
197 226 0 0 1
198 226 0 120 1
199 40 190 180 1
200 132 0 230 1
201 168 230 0 0
202 9 140 0 1
203 122 0 200 0
204 226 130 230 0
205 143 230 0 1
206 104 0 230 1
207 169 0 0 1
208 209 0 210 1
209 167 90 200 1
210 204 140 0 0
211 36 0 0 1
212 170 0 0 0
213 186 0 0 1
214 17 210 0 1
215 122 0 0 1
216 283 180 0 1
217 124 80 80 0
218 124 170 0 1
219 115 0 0 0
220 167 0 250 0
221 109 240 240 1
222 33 240 230 0
223 112 0 180 0
224 135 0 0 0
225 248 200 0 0
226 72 0 0 1
227 160 0 0 0
228 129 0 230 1
229 247 210 210 0
230 104 0 0 1
231 299 190 0 1
232 154 200 0 1
233 104 150 300 0
234 178 230 0 1
235 294 0 0 0
236 6 290 0 0
237 109 240 0 1
238 50 220 0 0
239 160 210 210 0
240 254 0 180 0
241 94 90 0 1
242 104 280 160 1
243 226 260 130 0
244 227 190 0 1
245 33 240 0 0
246 167 80 0 1
247 299 240 250 0
248 264 0 0 1
249 31 0 190 0
250 291 0 0 1
251 268 0 0 1
252 226 0 250 0
253 178 0 0 1
254 291 220 0 0
255 180 200 200 1
256 155 230 0 1
257 40 190 0 1
258 197 190 0 0
259 197 190 190 1
260 226 260 250 1
261 227 0 0 1
262 35 0 190 0
263 208 190 210 0
264 109 0 210 0
265 248 0 210 1
266 178 0 200 1
267 137 200 0 1
268 285 200 0 0
269 136 140 140 0
270 292 0 0 0
271 241 0 0 0
272 247 210 0 0
273 100 0 170 1
274 160 200 0 1
275 224 0 210 0
276 255 200 0 1
277 17 210 200 0
278 84 280 190 1
279 18 200 0 1
280 109 0 0 1
281 204 0 170 1
282 186 0 230 0
283 247 0 150 0
284 261 200 0 0
285 132 220 230 1
286 72 200 0 1
287 160 0 210 0
288 44 190 0 0
289 208 0 210 1
290 175 230 0 0
291 17 0 190 1
292 40 0 160 1
293 135 0 300 1
294 226 130 130 0
295 136 110 0 1
296 232 0 0 0
297 84 0 100 0
298 9 250 170 0
299 181 0 0 0
300 255 210 230 1
300 300 14872 0.02013